p cnf 10 50
-4 -2 9 0
-3 -5 -6 0
-9 -4 -1 0
-1 3 10 0
5 7 6 0
-3 -4 10 0
-1 -10 -7 0
-9 10 3 0
8 1 2 0
-9 10 -3 0
-8 -1 -10 0
-7 -5 -3 0
-6 -9 4 0
-2 9 -6 0
8 6 5 0
6 7 9 0
-5 -2 -9 0
-3 -1 -2 0
-9 -4 1 0
-7 5 -4 0
6 2 -7 0
-8 4 -2 0
9 -6 8 0
2 1 3 0
-10 6 2 0
-3 8 -1 0
-7 9 -3 0
-9 -6 10 0
-4 -3 9 0
3 -2 -10 0
-3 -2 -1 0
7 9 4 0
10 9 -7 0
-5 -8 -10 0
-1 7 8 0
-7 4 -6 0
-1 4 2 0
6 -10 7 0
-1 -8 6 0
9 -4 7 0
4 8 -6 0
-9 8 6 0
-2 8 -10 0
1 10 4 0
-10 3 2 0
-10 3 2 0
-9 4 6 0
-10 -8 -3 0
-7 5 8 0
2 8 -4 0